#B3LYP/6-31G** test output=wfn

r7l Gaussian wfn creation

0 1
