#rb3lyp/6-31g(d,p) opt freq

r8i Gaussian optim & freq analysis

0 1
