#rmp2/6-311++g(d,p) output=wfn

r14016 G03: Adenosine (Ado) SP #3

0 1
