%chk=
#rb3lyp/6-31g(d,p) opt=(GDIIS,MaxCycle=70) Int=UltraFine

r14012 G03: Adenosine (A) GO #7

0 1
