#rb3lyp/6-31g(d,p) opt=(GDIIS,MaxCycle=70,tight)

r14002 G03: riboAdo (Ado) GO #1_2

0 1
