%chk=
#rmp2/6-311++g(d,p) output=wfn

r14008 G03: Adenosine (A) SP

0 1
