#rb3lyp/6-31g(d,p) output=wfn

r14018 G03: Adenosine (Ado) WFN production

0 1
