%chk=
#rb3lyp/6-31g(d,p) freq

r14020 G03: Adenosine (Ado) FC #4 - redoing #1 with chk

0 1
