%chk=
#rb3lyp/6-31g(d,p) freq

r15105 G03: dAP FC

0 1
