#rb3lyp/6-31g(d,p) output=wfn

r16111 G03: 2'deoxypurine (dP) WFN production

0 1
