#mp2/6-311++g(d,p)

r16204 G03: d8AP MP2 SP calculations

0 1
