%chk=
#rb3lyp/6-31g(d,p) opt=(GDIIS,MaxCycle=60) Int=UltraFine output=wfn

r16205 G03: 2'deoxy-8azopurine GO #3

0 1
