%chk=
#rb3lyp/6-31g(d,p) opt=(GDIIS,MaxCycle=60) Int=UltraFine

r16207 G03: 2'deoxy-8azopurine GO #5

0 1
