%chk=
#rb3lyp/6-31g(d,p) freq

r16203 G03: d8AP FC

0 1
