#rb3lyp/6-31g(d,p) opt=(GDIIS,MaxCycle=70)

r24001 Gaussian: Cytidine (Cyt) GO

0 1
