%chk=
#rb3lyp/6-31g(d,p) freq

r24019 G03: Cyd FC recal with chk saving

0 1
