#rb3lyp/6-31g(d,p) opt=(GDIIS,MaxCycle=70)

r24011 Gaussian: Cytidine (Cyt) GO #5

0 1
