#rb3lyp/6-31g(d,p) opt=(GDIIS,MaxCycle=70,tight)

r24013 Gaussian: Cytidine (Cyt) GO #7

0 1
