%chk=
%NoSave
#rb3lyp/6-31g(d,p) opt=(GDIIS,MaxCycle=100) Int=UltraFine output=wfn

r31008 G03: 2'deoxy-8-aza-guanosine GO #6

0 1
