%chk=
%NoSave
#rb3lyp/6-31g(d,p) opt=(GDIIS,MaxCycle=70) Int=UltraFine output=wfn

r31002 G03: 2'deoxy-8-aza-guanosine GO #2

0 1
