%chk=
#rb3lyp/6-31g(d,p) opt=(GDIIS,MaxCycle=60) Int=UltraFine output=wfn

r34017 G03: Guanosine (Gua) GO #11

0 1
