#rb3lyp/6-31g(d,p) output=wfn

r34021 G03: Guanosine (Guo) WFN production

0 1
