#rmp2/6-311++g(d,p) output=wfn

r34013 G03: Guanosine (Gua) SP #2

0 1
