#rb3lyp/6-31g(d,p) freq

r34002 G03: Guanosine (G) FC

0 1
