#mp2/6-311++g(d,p) output=wfn

r34003 G03: Guanosine (G) SP calculations with MP2

0 1
