%chk=
%NoSave
#rb3lyp/6-31g(d,p) opt=(GDIIS,MaxCycle=100) Int=UltraFine output=wfn

r35208 G03: 2'deoxy-8-oxo-guanosine GO #6

0 1
