%chk=
%NoSave
#rb3lyp/6-31g(d,p) opt=(GDIIS,MaxCycle=100) Int=UltraFine output=wfn

r35206 G03: 2'deoxy-8-oxo-guanosine GO #4

0 1
