%chk=
%NoSave
#rb3lyp/6-31g(d,p) opt=(GDIIS,MaxCycle=60) Int=UltraFine output=wfn

r35202 G03: 2'deoxy-8-oxo-guanosine GO #2

0 1
