%chk=
#rb3lyp/6-31g(d,p) freq

r35203 G03: 2'deoxy-8-oxo-guanosine FC

0 1
