%chk=
%NoSave
#rb3lyp/6-31g(d,p) opt=(GDIIS,MaxCycle=60) Int=UltraFine output=wfn

r35302 G03: 2'deoxy-ksantine GO #1

0 1
