#rb3lyp/6-31g(d,p) output=wfn

r35309 G03: WFN production

0 1
