%chk=
%NoSave
#rb3lyp/6-31g(d,p) opt=(GDIIS,MaxCycle=120) Int=UltraFine output=wfn

r35307 G03: 2'deoxy-ksantine GO #5

0 1
