#mp2/6-311++g(d,p)

r35304 G03: 2'deoxy-ksantine SP calculations

0 1
