#rb3lyp/6-31g(d,p) output=wfn

r39011 G03: WFN production

0 1
