%chk=
%NoSave
#rb3lyp/6-31g(d,p) opt=(GDIIS,MaxCycle=60) Int=UltraFine output=wfn

r39009 G03: 2'deoxy-ksantine GO #7

0 1
