%chk=
%NoSave
#rb3lyp/6-31g(d,p) opt=(GDIIS,MaxCycle=60) Int=UltraFine output=wfn

r39108 G03: 2'deoxy-hipoksantine GO #6

0 1
