%chk=
#rb3lyp/6-31g(d,p) freq

r52103 G03: Br5 dUrd FC

0 1
