%chk=
#rmp2/6-311++g(d,p) output=wfn

r54011 G03: Uridine (Urd) SP

0 1
