%chk=
#rb3lyp/6-31g(d,p) opt=(GDIIS,MaxCycle=60) Int=UltraFine output=wfn

r54009 G03: Uridine (Urd) GO #7

0 1
