#mp2/6-311++g(d,p) output=wfn

r54003 G03: Uridine (U) SP calculations with MP2

0 1
