%chk=
#rb3lyp/6-31g(d,p) opt=(GDIIS,MaxCycle=60) Int=UltraFine output=wfn

r54014 G03: Uridine (Urd) GO #11 Zero

0 1
