#rb3lyp/6-31g(d,p) opt=(MaxCycle=40) freq output=wfn

r7m Gaussian: ribose GO analysis

0 1
