#rb3lyp/6-31g(d,p) opt=(MaxCycle=40)

r7o Gaussian: 1'deoxyribose addidional GO

0 1
