#rmp2/6-311++g(d,p) output=wfn

r7p Gaussian: 1'deoxyribose MP2 SP

0 1
