#rb3lyp/6-31g(d,p) freq

r7s Gaussian: 1'deoxyribose freq analysis of new confs

0 1
