#b3lyp/6-31g(d,p) output=wfn

r7v G03: 1'ribose wfn producing

0 1
