%chk=
#rb3lyp/6-311++g(d,p) opt=(MaxCycle=70,tight) freq output=wfn

r7w G03: 1'ribose GO reopt on rb3lyp/6-311++g(d,p)

0 1
