%chk=
#rb3lyp/6-311++g(d,p) opt=(MaxCycle=30) output=wfn Int=UltraFine

r7x G03: 1'ribose GO reopt on rb3lyp/6-311++g(d,p) ultrafine

0 1
