%Chk=
#rb3lyp/6-31g(d,p) freq

r7z G03: 1'deoxyribose 112 confs FC redoing with chk saving

0 1
