#rb3lyp/6-311g(d,p) 

r8k Gaussian energy in different basises

0 1
