#rb3lyp/6-311++g(d,p) 

r8l Gaussian energy in different basises

0 1
