#rb3lyp/6-311++g(2df,pd) 

r8m Gaussian energy in different basises

0 1
