#rmp2/6-311g(d,p) 

r8n Gaussian energy in different basises

0 1
