#rmp2/6-311++g(d,p) 

r8o Gaussian energy in different basises

0 1
