#rmp2/6-311++g(2df,pd) 

r8p Gaussian energy in different basises

0 1
