#rb3lyp/6-31g(d,p) AIM=BondOrders Density=Current

r8n Gaussian: AIM analysis test

0 1
