#rB3LYP/6-31G** test output=wfn

r8t G03: 1'2'deoxyribose WFN creation

0 1
