#rb3lyp/6-31g(d,p) freq

r8u3 Gaussian: completing 1'deoxyribose full conf analysis frequency calculations

0 1
