#rb3lyp/6-31g(d,p) opt

r8u Gaussian: completing 1'deoxyribose full conf analysis

0 1
