#rmp2/6-311++g(2df,pd) 

r8y Gaussian energy mp2/6-311++g(2df,pd)//mp2/6-31g(d,p) 

0 1
