#rb3lyp/6-31g(d,p) output=wfn

r8zc Gaussian WFN for r8 producing

0 1
