%chk=
#rb3lyp/6-31++g(d,p) opt=(GDIIS,MaxCycle=60) Int=UltraFine output=wfn

r8zl G03: 1'2'ribose GO reopt on rb3lyp/6-31++g(d,p) ü2

0 1
