%chk=
#rb3lyp/6-31++g(d,p) freq

r8zm G03: 1'2'ribose FC on rb3lyp/6-31++g(d,p) (dftV4)

0 1
