%chk=
#rmp2/6-311++g(d,p) output=wfn

r8zn G03: 1'2'ribose SP mp2/6-311++g(d,p) on rb3lyp/6-31++g(d,p) (dftV4)

0 1
