%chk=
#rmp2/6-31g(d,p) opt=(GDIIS,MaxCycle=60) Int=UltraFine output=wfn

r8zo G03: 1'2'ribose GO rmp2/6-31g(d,p)

0 1
