%chk=
#rmp2/6-31g(d,p) freq

r8zr G03: 1'2'ribose FC on rmp2/6-31g(d,p) (mp2V2)

0 1
