#rmp2/6-31g(d,p) output=wfn

r8zt G03: 1'2'ribose WFN production

0 1
