%Chk=
#rmp2/6-31g(d,p) freq

r8zv G03: 1'2'deoxyribose mp2V2 55 confs FC redoing with chk saving

0 1
