%chk=
#rb3lyp/6-31g(d,p) freq

r8zw G03: 1'2'deoxyribose (Gua) FC recalc

0 1