#rb3lyp/6-311++g(d,p) output=wfn

r904 Gaussian: SP calculations

0 1
