#rb3lyp/6-311++g(d,p) output=wfn

r905 Gaussian: additional frequency calculations

0 1
