#rb3lyp/6-31g(d,p) opt=(GDIIS)

r906 Gaussian: dCyt additional analysis

0 1
