#mp2/6-311++g(d,p) output=wfn

r907 Gaussian: SP calculations MP2

0 1
