#rb3lyp/6-31g(d,p) opt=(CalcFC,GDIIS,MaxCycle=30)

r910 Gaussian: dCytidine GO analysis additional

0 1
