#rb3lyp/6-31g(d,p) freq

r915 G03: dCyd frequency analysis on right geometry

0 1
