#b3lyp/6-31g(d,p) output=wfn

r917 G03: dC WFN production

0 1
