#mp2/6-311++g(d,p)

r931SP G03: SP calculations after chi splitting A-S -> BC-TV

0 1
