#rb3lyp/6-31g(d,p) freq

r931FC G03: dCyd frequency analysis after chi splitting A-S -> BC-TV

0 1
