#rb3lyp/6-31g(d,p) freq

rb01 Gaussian: AC6 freq analysis

0 1
