#rmp2/6-311++g(2df,pd) 

rb02 Gaussian: AC6 SP analysis

0 1
