#rb3lyp/6-31g(d,p) opt=(MaxCycle=50)

rb03 Gaussian: AC6 additional optimization

0 1
