#rb3lyp/6-31g(d,p) opt=(MaxCycle=50)

rb04 Gaussian: AC6 additional optimization (revised)

0 1
