#rb3lyp/6-31g(d,p) output=wfn

rb05 Gaussian: AC6 AIM producing

0 1
