#rb3lyp 6-31g(d,p) opt=(MaxCycle=50) output=wfn

rb07 Gaussian: AC6 NH2 group invertion optimizing

0 1
