#rb3lyp/6-31g(d,p) opt=(MaxCycle=50)

rb10 test

0 1
