#rmp2/6-311++g(2df,pd)

rb11 Gaussian: dAC6 SP analysis for geometries obrtained at mp2/cc-pVDZ

0 1
