#rb3lyp/6-31g(d,p) freq

rb14 Gaussian: AC6 freq analysis & SP misc

0 1
