#rmp2/6-311++g(2df,pd)

rb15 Gaussian: dAC6 FC & SP misc

0 1
