#rmp2/6-31g

rb16 Gaussian: dAC6 FC & SP misc (rmp2/6-31g)

0 1
