#rmp2/6-31g(d,p)

rb17 Gaussian: dAC6 SP misc (rmp2/6-31g(d,p))

0 1
