#rb3lyp/6-31g(d,p) freq

rb18 G03: d6AC FC at right geometry

0 1
