#rmp2/6-311++g(d,p) output=wfn

rb19 G03: d6AC SP at right geometry

0 1
