#rmp2/6-311++g(2df,pd) output=wfn

rb21 G03: d6AC SP at right geometry rmp2/6-311++g(2df,pd)

0 1
