#rb3lyp/6-31g(d,p) output=wfn

rb23 Gaussian: AC6 AIM producing with corrct geometry

0 1
