%chk=
#rb3lyp/6-31++g(d,p) opt=(MaxCycle=30) output=wfn

rb27 G03: d6AC GO reopt on rb3lyp/6-31++g(d,p)

0 1
