#rmp2/6-311++g(2df,pd) scrf=(iefpcm,solvent=water) output=wfn

rb42 G03: d6AC GO reopt on rb3lyp/6-311++g(d,p) in H2O by PCM

0 1
