#rb3lyp/6-31g(d,p) opt=(CalcFC,GDIIS)

rc01 Gaussian: dUrd GO analysis

0 1
