#rb3lyp/6-31g(d,p) freq

rc02 Gaussian: dUrd freq analysis

0 1
