#rb3lyp/6-31g(d,p) opt=(CalcFC,GDIIS,MaxCycle=50)

rc03 Gaussian: dUrd GO analysis additional

0 1
