#rb3lyp/6-31g(d,p) opt=(CalcFC,GDIIS,MaxCycle=50)

rc04 Gaussian: dUrd GO analysis additional 2

0 1
