#rb3lyp/6-31g(d,p) freq

rc05 Gaussian: dUrd freq analysis 2

0 1
