#rb3lyp/6-31g(d,p) freq

rc06 Gaussian: dUrd freq analysis 3

0 1
