#mp2/6-311++g(d,p) output=wfn

rc07 Gaussian: dUrd SP calculations with MP2

0 1
