#rb3lyp/6-31g(d,p) opt=(CalcFC,GDIIS,MaxCycle=50)

rc08 Gaussian: dUrd GO analysis additional #3

0 1
