#rb3lyp/6-31g(d,p) opt=(CalcFC,GDIIS,MaxCycle=30)

rc13 Gaussian: dUrd GO analysis additional #4

0 1
