#mp2/6-311++g(d,p) output=wfn

rc18 Gaussian: dUrd SP calculations with MP2

0 1
