#rb3lyp/6-31g(d,p) output=wfn

rc20 Gaussian: dUrd wavefunctions on GO geometry calculation

0 1
