#rb3lyp/6-31g(d,p) opt=(CalcFC,GDIIS,MaxCycle=40)

rc21 G03: dU GO additional #6

0 1
