#b3lyp/6-31g(d,p) output=wfn

rc22 G03: dU WFN production

0 1
