%Chk=
#rb3lyp/6-31g(d,p) freq

rc25 G03: dUrd 94 confs FC redoing with chk saving

0 1
