#rb3lyp/6-31g(d,p) opt=(CalcFC,GDIIS)

rd01 Gaussian: dThymidine GO analysis

0 1
