#rb3lyp/6-31g(d,p) freq

rd02 Gaussian: dThymidine freq analysis

0 1
