#rb3lyp/6-31g(d,p) opt=(CalcFC,GDIIS,MaxCycle=50)

rd03 Gaussian: dThymidine GO analysis additional

0 1
