#rb3lyp/6-31g(d,p) freq

rd05 Gaussian: dThymidine freq analysis 2

0 1
