#rb3lyp/6-31g(d,p) freq

rd06 Gaussian: dThymidine freq analysis 3

0 1
