#mp2/6-311++g(d,p) output=wfn

rd07 Gaussian: dThymidine SP calculations with MP2

0 1
