#rb3lyp/6-31g(d,p) opt=(CalcFC,GDIIS,MaxCycle=50)

rd08 Gaussian: dThymidine GO analysis additional #3

0 1
