#b3lyp/6-31g(d,p) output=wfn

rd14 G03: dT WFN production

0 1
