#rb3lyp/6-31g(d,p) freq

rd15 Gaussian: dThymidine freq analysis on right geometry

0 1
