#mp2/6-311++g(d,p) output=wfn

rd16 Gaussian: dThymidine SP calculations with MP2 on right geometry

0 1
