%chk=
#rb3lyp/6-31++g(d,p) opt=(MaxCycle=40,GDIIS) output=wfn Int=UltraFine

rd17 G03: dThymidine (dThd) GO reopt on rb3lyp/6-31++g(d,p) ultrafine

0 1
