%chk=
#rb3lyp/6-31g(d,p) freq

rd18 Gaussian: dThymidine dftV2 FC (remake) w/o raman

0 1
