#rb3lyp/6-31g(d,p) freq=(ReadIsotopes)

rc17 Gaussian: FC for 420K //add isotopes section

0 1
