#rb3lyp/6-31g(d,p) freq

rd23FC Gaussian: dThymidine freq analysis

0 1
