#mp2/6-311++g(d,p)

rd23SP Gaussian: dThymidine SP calculations with MP2

0 1
