#rb3lyp/6-31g(d,p) freq

re02 Gaussian: AC6 (non 2'deoxy) freq analysis

0 1
