#rb3lyp/6-31g(d,p) opt=(CalcFC,GDIIS,MaxCycle=70)

re03 Gaussian: AC6 (non 2'deoxy) GO analysis additional

0 1
