#rb3lyp/6-31g(d,p) opt=(CalcFC,GDIIS,MaxCycle=70)

re03 Gaussian: AC6 test!!!

0 1
