%chk=
#rb3lyp/6-31g(d,p) opt=(GDIIS,MaxCycle=70) Int=UltraFine

re06 G03: 6AC GO #6

0 1
