%chk=
#rb3lyp/6-31g(d,p) freq

re09 G03: 6AC FC

0 1
