#rmp2/6-311++g(d,p)

re10 G03: 6AC SP

0 1
