#rb3lyp/6-31g(d,p) output=wfn

re11 G03: 6AC WFN production

0 1
