%chk=
#rb3lyp/6-31g(d,p) opt=(GDIIS,MaxCycle=70) Int=UltraFine

re12 G03: 6AC GO #9

0 1
