%chk=
#rb3lyp/6-31g(d,p) opt=(GDIIS,MaxCycle=70) Int=UltraFine

re14 G03: 6AC GO #11

0 1
