#rb3lyp/6-31g(d,p) opt=(CalcFC,GDIIS)

rf01 Gaussian: dAdenine GO analysis

0 1
