#rb3lyp/6-31g(d,p) freq

rf02 Gaussian: dA freq analysis

0 1
