#mp2/6-311++g(d,p) output=wfn

rf03 Gaussian: dA SP calculations with MP2

0 1
