#rb3lyp/6-31g(d,p) opt=(CalcFC,GDIIS,MaxCycle=30)

rf04 Gaussian: dAdenine GO analysis additional

0 1
