#rb3lyp/6-31g(d,p) freq

rf05 Gaussian: dA freq analysis #2

0 1
