#mp2/6-311++g(d,p) output=wfn

rf09 G03: dA MP2 SP calculations #4

0 1
