#rb3lyp/6-31g(d,p) freq

rf10 Gaussian: dA freq analysis #4

0 1
