#rb3lyp/6-31g(d,p) opt=(CalcFC,GDIIS,MaxCycle=40)

rf11 G03: dA GO additional #5

0 1
