#rb3lyp/6-31g(d,p) freq

rf16 G03: dA freq analysis on right geometry

0 1
