#mp2/6-311++g(d,p) output=wfn

rf17 G03: dA SP calculations with MP2 on right geometry

0 1
