%chk=
#rb3lyp/6-31++g(d,p) opt=(MaxCycle=40,GDIIS) output=wfn Int=UltraFine

rf19 G03: dAdenosine (dAdo) GO reopt on rb3lyp/6-31++g(d,p) ultrafine

0 1
