%chk=
#rb3lyp/6-31g(d,p) freq

rf30FC G03: dAdo FC

0 1
