%chk=
%NoSave
#rb3lyp/6-31g(d,p) opt=(GDIIS,MaxCycle=60) Int=UltraFine 

rf30 G03: dAdo additional GO based on r161 new conformers (chi splitting A-S -> BC-TV)

0 1
