#mp2/6-311++g(d,p)

rf30SP G03: dAdo MP2 SP calculations

0 1
