%chk=
%NoSave
#rb3lyp/6-31g(d,p) opt=(GDIIS,MaxCycle=60) Int=UltraFine 

rf32 G03: dAdo additional GO based on r161 new conformers (chi splitting A-S -> BC-TV) #3

0 1
