#rb3lyp/6-31g(d,p) output=wfn

rf34 G03: G03: WFN production

0 1
