#rb3lyp/6-31g(d,p) opt=(CalcFC,GDIIS,MaxCycle=70)

rg01 Gaussian: dGuanine GO analysis

0 1
