#rb3lyp/6-31g(d,p) freq

rg02 Gaussian: dG freq analysis

0 1
