#mp2/6-311++g(d,p) output=wfn

rg03 Gaussian: dG SP calculations with MP2

0 1
