#rb3lyp/6-31g(d,p) opt=(CalcFC,GDIIS,MaxCycle=30)

rg04 Gaussian: dGuanine GO analysis additional

0 1
