#rb3lyp/6-31g(d,p) freq

rg05 Gaussian: dG freq analysis #2

0 1
