#rb3lyp/6-31g(d,p) freq

rg08 Gaussian: dG freq analysis #3

0 1
