#mp2/6-311++g(d,p) output=wfn

rg09 Gaussian: dG SP #3

0 1
