#mp2/6-311++g(d,p) output=wfn

rg10 G03: dG MP2 SP calculations #4

0 1
