#rb3lyp/6-31g(d,p) freq

rg11 Gaussian: dG freq analysis #4

0 1
