#rb3lyp/6-31g(d,p) opt=(CalcFC,GDIIS,MaxCycle=40)

rg12 G03: dG GO additional #5

0 1
