#rb3lyp/6-31g(d,p) opt=(CalcFC,GDIIS,MaxCycle=40)

rg14 G03: dG GO additional #6

0 1
