#b3lyp/6-31g(d,p) output=wfn

rg16 G03: dG WFN production

0 1
