#rb3lyp/6-31g(d,p) freq

rg18 G03: dG freq analysis on the right geometry

0 1
