#mp2/6-311++g(d,p) output=wfn

rg19 G03: dG SP calculations with MP2 on right geometry

0 1
