%chk=
#rb3lyp/6-31++g(d,p) opt=(MaxCycle=40,GDIIS) output=wfn Int=UltraFine

rg22 G03: dGuanosine (dGuo) GO reopt on rb3lyp/6-31++g(d,p) ultrafine

0 1
