%chk=
#rb3lyp/6-31g(d,p) freq

rg27 G03: dGuo FC recal with chk saving

0 1
