#rb3lyp/6-31g(d,p) freq

rh02 Gaussian: 2'deoxy-6azauridine freq analysis

0 1
