#mp2/6-311++g(d,p) output=wfn

rh03 Gaussian: 2'deoxy-6azauridine SP calculations with MP2

0 1
