%chk=
%NoSave
#rb3lyp/6-31g(d,p) opt=(GDIIS,MaxCycle=60) Int=UltraFine output=wfn

rh04 G03: 2'deoxy-6azauridine (d6AU) GO #1

0 1
