%chk=
#rb3lyp/6-31g(d,p) opt=(GDIIS,MaxCycle=60) Int=UltraFine output=wfn

rh05 G03: d6AU GO #2

0 1
