%chk=
#rb3lyp/6-31g(d,p) freq

rh06 G03: d6AU FC

0 1
