#mp2/6-311++g(d,p)

rh07 G03: d6AU MP2 SP calculations

0 1
