#rb3lyp/6-31g(d,p) freq

ri02 Gaussian: 2'deoxy-6azathymidine freq analysis

0 1
