#rb3lyp/6-31g(d,p) freq

rj02 Gaussian: 2'deoxy-5azauridine freq analysis

0 1
