#mp2/6-311++g(d,p) output=wfn

rj03 Gaussian: 2'deoxy-5azauridine SP calculations with MP2

0 1
