%chk=
%NoSave
#rb3lyp/6-31g(d,p) opt=(GDIIS,MaxCycle=60) Int=UltraFine output=wfn

rj04 G03: 2'deoxy-5azauridine (d5AU) GO #1

0 1
