%chk=
#rb3lyp/6-31g(d,p) opt=(GDIIS,MaxCycle=60) Int=UltraFine output=wfn

rj05 G03: d5AU GO #2

0 1
