%chk=
#rb3lyp/6-31g(d,p) freq

rj06 G03: d5AU FC

0 1
