#mp2/6-311++g(d,p)

rj07 G03: d5AU MP2 SP calculations

0 1
