%chk=
#rb3lyp/6-31g(d,p) opt=(GDIIS,MaxCycle=60) Int=UltraFine output=wfn

rj08 G03: d5AU GO #3

0 1
