#rb3lyp/6-31g(d,p) freq

rl02 Gaussian: 2'deoxy-5azacytidine freq analysis

0 1
