#mp2/6-311++g(d,p) output=wfn

ri03 Gaussian: 2'deoxy-5azacytidine SP calculations with MP2

0 1
