%chk=
%NoSave
#rb3lyp/6-31g(d,p) opt=(GDIIS,MaxCycle=60) Int=UltraFine output=wfn

rl04 G03: 2'deoxy-5azacytidine (d5AC) GO #1

0 1
