%chk=
#rb3lyp/6-31g(d,p) freq

rl06 G03: d5AC FC

0 1
