#mp2/6-311++g(d,p)

rl07 G03: d5AC MP2 SP calculations

0 1
