#rb3lyp/6-31g(d,p) output=wfn

rl11 G03: G03: WFN production

0 1
