#rb3lyp/6-31g(d,p) opt=(CalcFC,GDIIS,MaxCycle=50)

rm01 Gaussian: 5'P 2'deoxyribose GO

0 1
