#rb3lyp/6-31g(d,p) opt=(CalcFC,GDIIS,MaxCycle=50)

rn01 Gaussian: 3'P 2'deoxyribose GO

0 1
