#rb3lyp/6-31g(d,p) output=wfn

rx19WFN create WFN for results of E(chi) scan

0 1
