#rb3lyp/6-31g(d,p) opt=(CalcFC,GDIIS,MaxCycle=70)

rx3006 Gaussian: dXMP DNAlike & most optimal GO

0 1
