#rb3lyp/6-31g(d,p) opt=(CalcFC,GDIIS,MaxCycle=70)

rx3101 Gaussian: dXMP 3' DNAlike GO

0 1
