#rb3lyp/6-31g(d,p) freq

rxx004 Gaussian: FC for molecules obtained up to 060224

0 1
