#mp2/6-311++g(d,p) output=wfn

rxx006 Gaussian: SP MP2 for molecules obtained up to 060224

0 1
